N: 5000
R: 1000
Capacities: 1249257
------
Total value: 1249257
Total weight: 1249257
Packed Items: [0, 1, 2, 3, 4, 5, 6, 7, 8, 9, 10, 11, 12, 13, 14, 15, 16, 17, 18, 19, 20, 21, 22, 23, 24, 25, 26, 27, 28, 29, 30, 31, 32, 33, 34, 35, 36, 37, 38, 39, 40, 41, 42, 43, 44, 45, 46, 47, 48, 49, 50, 51, 52, 53, 54, 55, 56, 57, 58, 59, 60, 61, 62, 63, 64, 65, 66, 67, 68, 69, 70, 71, 72, 73, 74, 75, 76, 77, 78, 79, 80, 81, 82, 83, 84, 85, 86, 87, 88, 89, 90, 91, 92, 93, 94, 95, 96, 97, 98, 99, 100, 101, 102, 103, 104, 105, 106, 107, 108, 109, 110, 111, 112, 113, 114, 115, 116, 117, 118, 119, 120, 121, 122, 123, 124, 125, 126, 127, 128, 129, 130, 131, 132, 133, 134, 135, 136, 137, 138, 139, 140, 141, 142, 143, 144, 145, 146, 147, 148, 149, 150, 151, 152, 153, 154, 155, 156, 157, 158, 159, 160, 161, 162, 163, 164, 165, 166, 167, 168, 169, 170, 171, 172, 173, 174, 175, 176, 177, 178, 179, 180, 181, 182, 183, 184, 185, 186, 187, 188, 189, 190, 191, 192, 193, 194, 195, 196, 197, 198, 199, 200, 201, 202, 203, 204, 205, 206, 207, 208, 209, 210, 211, 212, 213, 214, 215, 216, 217, 218, 219, 220, 221, 222, 223, 224, 225, 226, 227, 228, 229, 230, 231, 232, 233, 234, 235, 236, 237, 238, 239, 240, 241, 242, 243, 244, 245, 246, 247, 248, 249, 250, 251, 252, 253, 254, 255, 256, 257, 258, 259, 260, 261, 262, 263, 264, 265, 266, 267, 268, 269, 270, 271, 272, 273, 274, 275, 276, 277, 278, 279, 280, 281, 282, 283, 284, 285, 286, 287, 288, 289, 290, 291, 292, 293, 294, 295, 296, 297, 298, 299, 300, 301, 302, 303, 304, 305, 306, 307, 308, 309, 310, 311, 312, 313, 314, 315, 316, 317, 318, 319, 320, 321, 322, 323, 324, 325, 326, 327, 328, 329, 330, 331, 332, 333, 334, 335, 336, 337, 338, 339, 340, 341, 342, 343, 344, 345, 346, 347, 348, 349, 350, 351, 352, 353, 354, 355, 356, 357, 358, 359, 360, 361, 362, 363, 364, 365, 366, 367, 368, 369, 370, 371, 372, 373, 374, 375, 376, 377, 378, 379, 380, 381, 382, 383, 384, 385, 386, 387, 388, 389, 390, 391, 392, 393, 394, 395, 396, 397, 398, 399, 400, 401, 402, 403, 404, 405, 406, 407, 408, 409, 410, 411, 412, 413, 414, 415, 416, 417, 418, 419, 420, 421, 422, 423, 424, 425, 426, 427, 428, 429, 430, 431, 432, 433, 434, 435, 436, 437, 438, 439, 440, 441, 442, 443, 444, 445, 446, 447, 448, 449, 450, 451, 452, 453, 454, 455, 456, 457, 458, 459, 460, 461, 462, 463, 464, 465, 466, 467, 468, 469, 470, 471, 472, 473, 474, 475, 476, 477, 478, 479, 480, 481, 482, 483, 484, 485, 486, 487, 488, 489, 490, 491, 492, 493, 494, 495, 496, 497, 498, 499, 500, 501, 502, 503, 504, 505, 506, 507, 508, 509, 510, 511, 512, 513, 514, 515, 516, 517, 518, 519, 520, 521, 522, 523, 524, 525, 526, 527, 528, 529, 530, 531, 532, 533, 534, 535, 536, 537, 538, 539, 540, 541, 542, 543, 544, 545, 546, 547, 548, 549, 550, 551, 552, 553, 554, 555, 556, 557, 558, 559, 560, 561, 562, 563, 564, 565, 566, 567, 568, 569, 570, 571, 572, 573, 574, 575, 576, 577, 578, 579, 580, 581, 582, 583, 584, 585, 586, 587, 588, 589, 590, 591, 592, 593, 594, 595, 596, 597, 598, 599, 600, 601, 602, 603, 604, 605, 606, 607, 608, 609, 610, 611, 612, 613, 614, 615, 616, 617, 618, 619, 620, 621, 622, 623, 624, 625, 626, 627, 628, 629, 630, 631, 632, 633, 634, 635, 636, 637, 638, 639, 640, 641, 642, 643, 644, 645, 646, 647, 648, 649, 650, 651, 652, 653, 654, 655, 656, 657, 658, 659, 660, 661, 662, 663, 664, 665, 666, 667, 668, 669, 670, 671, 672, 673, 674, 675, 676, 677, 678, 679, 680, 681, 682, 683, 684, 685, 686, 687, 688, 689, 690, 691, 692, 693, 694, 695, 696, 697, 698, 699, 700, 701, 702, 703, 704, 705, 706, 707, 708, 709, 710, 711, 712, 713, 714, 715, 716, 717, 718, 719, 720, 721, 722, 723, 724, 725, 726, 727, 728, 729, 730, 731, 732, 733, 734, 735, 736, 737, 738, 739, 740, 741, 742, 743, 744, 745, 746, 747, 748, 749, 750, 751, 752, 753, 754, 755, 756, 757, 758, 759, 760, 761, 762, 763, 764, 765, 766, 767, 768, 769, 770, 771, 772, 773, 774, 775, 776, 777, 778, 779, 780, 781, 782, 783, 784, 785, 786, 787, 788, 789, 790, 791, 792, 793, 794, 795, 796, 797, 798, 799, 800, 801, 802, 803, 804, 805, 806, 807, 808, 809, 810, 811, 812, 813, 814, 815, 816, 817, 818, 819, 820, 821, 822, 823, 824, 825, 826, 827, 828, 829, 830, 831, 832, 833, 834, 835, 836, 837, 838, 839, 840, 841, 842, 843, 844, 845, 846, 847, 848, 849, 850, 851, 852, 853, 854, 855, 856, 857, 858, 859, 860, 861, 862, 863, 864, 865, 866, 867, 868, 869, 870, 871, 872, 873, 874, 875, 876, 877, 878, 879, 880, 881, 882, 883, 884, 885, 886, 887, 888, 889, 890, 891, 892, 893, 894, 895, 896, 897, 898, 899, 900, 901, 902, 903, 904, 905, 906, 907, 908, 909, 910, 911, 912, 913, 914, 915, 916, 917, 918, 919, 920, 921, 922, 923, 924, 925, 926, 927, 928, 929, 930, 931, 932, 933, 934, 935, 936, 937, 938, 939, 940, 941, 942, 943, 944, 945, 946, 947, 948, 949, 950, 951, 952, 953, 954, 955, 956, 957, 958, 959, 960, 961, 962, 963, 964, 965, 966, 967, 968, 969, 970, 971, 972, 973, 974, 975, 976, 977, 978, 979, 980, 981, 982, 983, 984, 985, 986, 987, 988, 989, 990, 991, 992, 993, 994, 995, 996, 997, 998, 999, 1000, 1001, 1002, 1003, 1004, 1005, 1006, 1007, 1008, 1009, 1010, 1011, 1012, 1013, 1014, 1015, 1016, 1017, 1018, 1019, 1020, 1021, 1022, 1023, 1024, 1025, 1026, 1027, 1028, 1029, 1030, 1031, 1032, 1033, 1034, 1035, 1036, 1037, 1038, 1039, 1040, 1041, 1042, 1043, 1044, 1045, 1046, 1047, 1048, 1049, 1050, 1051, 1052, 1053, 1054, 1055, 1056, 1057, 1058, 1059, 1060, 1061, 1062, 1063, 1064, 1065, 1066, 1067, 1068, 1069, 1070, 1071, 1072, 1073, 1074, 1075, 1076, 1077, 1078, 1079, 1080, 1081, 1082, 1083, 1084, 1085, 1086, 1087, 1088, 1089, 1090, 1091, 1092, 1093, 1094, 1095, 1096, 1097, 1098, 1099, 1100, 1101, 1102, 1103, 1104, 1105, 1106, 1107, 1108, 1109, 1110, 1111, 1112, 1113, 1114, 1115, 1116, 1117, 1118, 1119, 1120, 1121, 1122, 1123, 1124, 1125, 1126, 1127, 1128, 1129, 1130, 1131, 1132, 1133, 1134, 1135, 1136, 1137, 1138, 1139, 1140, 1141, 1142, 1143, 1144, 1145, 1146, 1147, 1148, 1149, 1150, 1151, 1152, 1153, 1154, 1155, 1156, 1157, 1158, 1159, 1160, 1161, 1162, 1163, 1164, 1165, 1166, 1167, 1168, 1169, 1170, 1171, 1172, 1173, 1174, 1175, 1176, 1177, 1178, 1179, 1180, 1181, 1182, 1183, 1184, 1185, 1186, 1187, 1188, 1189, 1190, 1191, 1192, 1193, 1194, 1195, 1196, 1197, 1198, 1199, 1200, 1201, 1202, 1203, 1204, 1205, 1206, 1207, 1208, 1209, 1210, 1211, 1212, 1213, 1214, 1215, 1216, 1217, 1218, 1219, 1220, 1221, 1222, 1223, 1224, 1225, 1226, 1227, 1228, 1229, 1230, 1231, 1232, 1233, 1234, 1235, 1236, 1237, 1238, 1239, 1240, 1241, 1242, 1243, 1244, 1245, 1246, 1247, 1248, 1249, 1250, 1251, 1252, 1253, 1254, 1255, 1256, 1257, 1258, 1259, 1260, 1261, 1262, 1263, 1264, 1265, 1266, 1267, 1268, 1269, 1270, 1271, 1272, 1273, 1274, 1275, 1276, 1277, 1278, 1279, 1280, 1281, 1282, 1283, 1284, 1285, 1286, 1287, 1288, 1289, 1290, 1291, 1292, 1293, 1294, 1295, 1296, 1297, 1298, 1299, 1300, 1301, 1302, 1303, 1304, 1305, 1306, 1307, 1308, 1309, 1310, 1311, 1312, 1313, 1314, 1315, 1316, 1317, 1318, 1319, 1320, 1321, 1322, 1323, 1324, 1325, 1326, 1327, 1328, 1329, 1330, 1331, 1332, 1333, 1334, 1335, 1336, 1337, 1338, 1339, 1340, 1341, 1342, 1343, 1344, 1345, 1346, 1347, 1348, 1349, 1350, 1351, 1352, 1353, 1354, 1355, 1356, 1357, 1358, 1359, 1360, 1361, 1362, 1363, 1364, 1365, 1366, 1367, 1368, 1369, 1370, 1371, 1372, 1373, 1374, 1375, 1376, 1377, 1378, 1379, 1380, 1381, 1382, 1383, 1384, 1385, 1386, 1387, 1388, 1389, 1390, 1391, 1392, 1393, 1394, 1395, 1396, 1397, 1398, 1399, 1400, 1401, 1402, 1403, 1404, 1405, 1406, 1407, 1408, 1409, 1410, 1411, 1412, 1413, 1414, 1415, 1416, 1417, 1418, 1419, 1420, 1421, 1422, 1423, 1424, 1425, 1426, 1427, 1428, 1429, 1430, 1431, 1432, 1433, 1434, 1435, 1436, 1437, 1438, 1439, 1440, 1441, 1442, 1443, 1444, 1445, 1446, 1447, 1448, 1449, 1450, 1451, 1452, 1453, 1454, 1455, 1456, 1457, 1458, 1459, 1460, 1461, 1462, 1463, 1464, 1465, 1466, 1467, 1468, 1469, 1470, 1471, 1472, 1473, 1474, 1475, 1476, 1477, 1478, 1479, 1480, 1481, 1482, 1483, 1484, 1485, 1486, 1487, 1488, 1489, 1490, 1491, 1492, 1493, 1494, 1495, 1496, 1497, 1498, 1499, 1500, 1501, 1502, 1503, 1504, 1505, 1506, 1507, 1508, 1509, 1510, 1511, 1512, 1513, 1514, 1515, 1516, 1517, 1518, 1519, 1520, 1521, 1522, 1523, 1524, 1525, 1526, 1527, 1528, 1529, 1530, 1531, 1532, 1533, 1534, 1535, 1536, 1537, 1538, 1539, 1540, 1541, 1542, 1543, 1544, 1545, 1546, 1547, 1548, 1549, 1550, 1551, 1552, 1553, 1554, 1555, 1556, 1557, 1558, 1559, 1560, 1561, 1562, 1563, 1564, 1565, 1566, 1567, 1568, 1569, 1570, 1571, 1572, 1573, 1574, 1575, 1576, 1577, 1578, 1579, 1580, 1581, 1582, 1583, 1584, 1585, 1586, 1587, 1588, 1589, 1590, 1591, 1592, 1593, 1594, 1595, 1596, 1597, 1598, 1599, 1600, 1601, 1602, 1603, 1604, 1605, 1606, 1607, 1608, 1609, 1610, 1611, 1612, 1613, 1614, 1615, 1616, 1617, 1618, 1619, 1620, 1621, 1622, 1623, 1624, 1625, 1626, 1627, 1628, 1629, 1630, 1631, 1632, 1633, 1634, 1635, 1636, 1637, 1638, 1639, 1640, 1641, 1642, 1643, 1644, 1645, 1646, 1647, 1648, 1649, 1650, 1651, 1652, 1653, 1654, 1655, 1656, 1657, 1658, 1659, 1660, 1661, 1662, 1663, 1664, 1665, 1666, 1667, 1668, 1669, 1670, 1671, 1672, 1673, 1674, 1675, 1676, 1677, 1678, 1679, 1680, 1681, 1682, 1683, 1684, 1685, 1686, 1687, 1688, 1689, 1690, 1691, 1692, 1693, 1694, 1695, 1696, 1697, 1698, 1699, 1700, 1701, 1702, 1703, 1704, 1705, 1706, 1707, 1708, 1709, 1710, 1711, 1712, 1713, 1714, 1715, 1716, 1717, 1718, 1719, 1720, 1721, 1722, 1723, 1724, 1725, 1726, 1727, 1728, 1729, 1730, 1731, 1732, 1733, 1734, 1735, 1736, 1737, 1738, 1739, 1740, 1741, 1742, 1743, 1744, 1745, 1746, 1747, 1748, 1749, 1750, 1751, 1752, 1753, 1754, 1755, 1756, 1757, 1758, 1759, 1760, 1761, 1762, 1763, 1764, 1765, 1766, 1767, 1768, 1769, 1770, 1771, 1772, 1773, 1774, 1775, 1776, 1777, 1778, 1779, 1780, 1781, 1782, 1783, 1784, 1785, 1786, 1787, 1788, 1789, 1790, 1791, 1792, 1793, 1794, 1795, 1796, 1797, 1798, 1799, 1800, 1801, 1802, 1803, 1804, 1805, 1806, 1807, 1808, 1809, 1810, 1811, 1812, 1813, 1814, 1815, 1816, 1817, 1818, 1819, 1820, 1821, 1822, 1823, 1824, 1825, 1826, 1827, 1828, 1829, 1830, 1831, 1832, 1833, 1834, 1835, 1836, 1837, 1838, 1839, 1840, 1841, 1842, 1843, 1844, 1845, 1846, 1847, 1848, 1849, 1850, 1851, 1852, 1853, 1854, 1855, 1856, 1857, 1858, 1859, 1860, 1861, 1862, 1863, 1864, 1865, 1866, 1867, 1868, 1869, 1870, 1871, 1872, 1873, 1874, 1875, 1876, 1877, 1878, 1879, 1880, 1881, 1882, 1883, 1884, 1885, 1886, 1887, 1888, 1889, 1890, 1891, 1892, 1893, 1894, 1895, 1896, 1897, 1898, 1899, 1900, 1901, 1902, 1903, 1904, 1905, 1906, 1907, 1908, 1909, 1910, 1911, 1912, 1913, 1914, 1915, 1916, 1917, 1918, 1919, 1920, 1921, 1922, 1923, 1924, 1925, 1926, 1927, 1928, 1929, 1930, 1931, 1932, 1933, 1934, 1935, 1936, 1937, 1938, 1939, 1940, 1941, 1942, 1943, 1944, 1945, 1946, 1947, 1948, 1949, 1950, 1951, 1952, 1953, 1954, 1955, 1956, 1957, 1958, 1959, 1960, 1961, 1962, 1963, 1964, 1965, 1966, 1967, 1968, 1969, 1970, 1971, 1972, 1973, 1974, 1975, 1976, 1977, 1978, 1979, 1980, 1981, 1982, 1983, 1984, 1985, 1986, 1987, 1988, 1989, 1990, 1991, 1992, 1993, 1994, 1995, 1996, 1997, 1998, 1999, 2000, 2001, 2002, 2003, 2004, 2005, 2006, 2007, 2008, 2009, 2010, 2011, 2012, 2013, 2014, 2015, 2016, 2017, 2018, 2019, 2020, 2021, 2022, 2023, 2024, 2025, 2026, 2027, 2028, 2029, 2030, 2031, 2032, 2033, 2034, 2035, 2036, 2037, 2038, 2039, 2040, 2041, 2042, 2043, 2044, 2045, 2046, 2047, 2048, 2049, 2050, 2051, 2052, 2053, 2054, 2055, 2056, 2057, 2058, 2059, 2060, 2061, 2062, 2063, 2064, 2065, 2066, 2067, 2068, 2069, 2070, 2071, 2072, 2073, 2074, 2075, 2076, 2077, 2078, 2079, 2080, 2081, 2082, 2083, 2084, 2085, 2086, 2087, 2088, 2089, 2090, 2091, 2092, 2093, 2094, 2095, 2096, 2097, 2098, 2099, 2100, 2101, 2102, 2103, 2104, 2105, 2106, 2107, 2108, 2109, 2110, 2111, 2112, 2113, 2114, 2115, 2116, 2117, 2118, 2119, 2120, 2121, 2122, 2123, 2124, 2125, 2126, 2127, 2128, 2129, 2130, 2131, 2132, 2133, 2134, 2135, 2136, 2137, 2138, 2139, 2140, 2141, 2142, 2143, 2144, 2145, 2146, 2147, 2148, 2149, 2150, 2151, 2152, 2153, 2154, 2155, 2156, 2157, 2158, 2159, 2160, 2161, 2162, 2163, 2164, 2165, 2166, 2167, 2168, 2169, 2170, 2171, 2172, 2173, 2174, 2175, 2176, 2177, 2178, 2179, 2180, 2181, 2182, 2183, 2184, 2185, 2186, 2187, 2188, 2189, 2190, 2191, 2192, 2193, 2194, 2195, 2196, 2197, 2198, 2199, 2200, 2201, 2202, 2203, 2204, 2205, 2206, 2207, 2208, 2209, 2210, 2211, 2212, 2213, 2214, 2215, 2216, 2217, 2218, 2219, 2220, 2221, 2222, 2223, 2224, 2225, 2226, 2228, 2229, 2230, 2231, 2232, 2233, 2234, 2235, 2236, 2237, 2238, 2239, 2240, 2241, 2242, 2243, 2244, 2245, 2246, 2247, 2248, 2249, 2250, 2251, 2252, 2253, 2254, 2255, 2256, 2257, 2258, 2259, 2260, 2261, 2262, 2263, 2264, 2265, 2266, 2267, 2268, 2269, 2270, 2271, 2272, 2273, 2274, 2275, 2276, 2277, 2278, 2279, 2280, 2281, 2282, 2283, 2284, 2285, 2286, 2287, 2288, 2289, 2290, 2291, 2292, 2293, 2294, 2295, 2296, 2297, 2298, 2299, 2300, 2301, 2302, 2303, 2304, 2305, 2306, 2307, 2308, 2309, 2310, 2311, 2312, 2313, 2314, 2315, 2316, 2317, 2318, 2319, 2320, 2321, 2322, 2323, 2324, 2325, 2326, 2327, 2328, 2329, 2330, 2331, 2332, 2333, 2334, 2335, 2336, 2337, 2338, 2339, 2340, 2341, 2342, 2343, 2344, 2345, 2346, 2347, 2348, 2349, 2350, 2351, 2352, 2353, 2354, 2355, 2356, 2357, 2358, 2359, 2360, 2361, 2362, 2363, 2364, 2365, 2366, 2367, 2368, 2369, 2370, 2371, 2372, 2373, 2374, 2375, 2376, 2377, 2378, 2379, 2380, 2381, 2382, 2383, 2384, 2385, 2386, 2387, 2388, 2389, 2390, 2391, 2392, 2393, 2394, 2395, 2396, 2397, 2398, 2399, 2400, 2401, 2402, 2403, 2404, 2405, 2406, 2407, 2408, 2409, 2410, 2411, 2412, 2413, 2414, 2415, 2416, 2417, 2418, 2419, 2420, 2421, 2422, 2423, 2424, 2425, 2426, 2427, 2428, 2429, 2430, 2431, 2432, 2433, 2434, 2435, 2436, 2437, 2438, 2439, 2440, 2441, 2442, 2443, 2444, 2445, 2446, 2447, 2448, 2449, 2450, 2451, 2452, 2453, 2454, 2455, 2456, 2457, 2458, 2459, 2460, 2461, 2462, 2463, 2464, 2465, 2466, 2467, 2468, 2469, 2470, 2471, 2472, 2473, 2474, 2475, 2476, 2477, 2478, 2479, 2480, 2481, 2482, 2483, 2484, 2485, ]
Packed Weights: [845, 758, 421, 259, 512, 405, 784, 304, 477, 584, 909, 505, 282, 756, 619, 251, 910, 983, 811, 903, 311, 730, 899, 684, 473, 101, 435, 611, 914, 967, 478, 866, 261, 806, 549, 15, 720, 399, 825, 669, 2, 494, 868, 244, 326, 871, 192, 568, 239, 968, 804, 448, 81, 321, 508, 933, 110, 552, 707, 548, 815, 541, 964, 604, 588, 445, 597, 385, 576, 291, 190, 187, 613, 657, 477, 90, 758, 877, 924, 843, 899, 924, 541, 392, 706, 276, 812, 850, 896, 590, 950, 580, 451, 661, 997, 917, 794, 83, 613, 487, 631, 846, 244, 732, 118, 221, 795, 333, 816, 101, 147, 698, 46, 574, 911, 535, 681, 27, 635, 607, 576, 392, 371, 981, 37, 22, 962, 185, 124, 211, 801, 937, 23, 426, 102, 260, 221, 647, 351, 181, 504, 40, 101, 989, 200, 359, 732, 839, 919, 170, 673, 967, 59, 677, 846, 343, 251, 597, 443, 175, 472, 410, 570, 509, 312, 358, 838, 251, 561, 13, 742, 336, 46, 281, 241, 954, 353, 288, 360, 947, 634, 622, 716, 389, 415, 651, 2, 193, 335, 240, 638, 379, 876, 569, 415, 403, 702, 419, 663, 47, 446, 260, 158, 528, 488, 562, 756, 884, 495, 313, 467, 810, 876, 813, 189, 1000, 634, 84, 726, 987, 402, 679, 317, 214, 718, 3, 823, 529, 98, 119, 650, 874, 280, 979, 101, 854, 397, 82, 275, 453, 793, 862, 134, 521, 651, 348, 872, 279, 19, 41, 681, 559, 947, 939, 910, 43, 750, 702, 656, 713, 903, 641, 373, 538, 208, 588, 9, 152, 334, 790, 719, 339, 621, 42, 164, 982, 290, 395, 549, 294, 479, 240, 49, 180, 524, 71, 404, 329, 415, 100, 909, 475, 841, 977, 344, 480, 700, 427, 302, 735, 895, 920, 627, 376, 975, 639, 66, 85, 750, 62, 8, 394, 520, 449, 489, 585, 680, 424, 369, 989, 261, 778, 432, 359, 64, 864, 703, 904, 452, 677, 119, 398, 208, 43, 948, 216, 147, 198, 379, 547, 152, 989, 983, 149, 406, 680, 878, 496, 918, 323, 499, 499, 671, 202, 610, 219, 341, 963, 900, 819, 36, 149, 257, 785, 843, 583, 719, 808, 67, 85, 869, 40, 226, 41, 16, 844, 331, 161, 149, 657, 969, 505, 902, 503, 574, 679, 806, 758, 991, 747, 906, 207, 536, 599, 826, 483, 792, 389, 587, 852, 799, 657, 1, 182, 507, 255, 66, 860, 943, 303, 409, 811, 63, 641, 128, 288, 830, 56, 36, 418, 492, 864, 718, 674, 152, 987, 412, 612, 387, 48, 471, 152, 33, 618, 630, 106, 550, 347, 384, 777, 491, 882, 611, 468, 633, 338, 125, 683, 623, 789, 128, 912, 800, 917, 873, 682, 811, 520, 786, 190, 783, 445, 757, 456, 790, 76, 45, 935, 487, 902, 945, 667, 572, 216, 94, 820, 889, 780, 699, 421, 306, 114, 426, 567, 923, 936, 416, 100, 774, 735, 31, 447, 687, 31, 920, 963, 723, 79, 71, 360, 30, 348, 10, 975, 820, 71, 894, 208, 205, 674, 939, 124, 8, 370, 25, 605, 860, 187, 113, 345, 960, 131, 967, 363, 474, 293, 938, 959, 636, 185, 993, 103, 581, 157, 898, 946, 805, 316, 243, 755, 292, 420, 47, 133, 21, 78, 74, 421, 551, 741, 143, 423, 637, 85, 445, 370, 949, 58, 409, 418, 729, 321, 204, 294, 471, 951, 797, 277, 559, 689, 796, 447, 399, 768, 432, 248, 454, 938, 143, 463, 638, 484, 204, 2, 699, 619, 8, 299, 769, 629, 546, 157, 707, 472, 679, 761, 233, 762, 281, 985, 121, 884, 41, 257, 527, 582, 397, 103, 253, 284, 756, 909, 596, 36, 793, 306, 340, 531, 250, 920, 164, 415, 290, 520, 574, 628, 532, 411, 635, 404, 779, 789, 293, 372, 629, 158, 698, 382, 592, 140, 669, 355, 473, 416, 477, 695, 319, 653, 61, 301, 746, 53, 622, 26, 472, 889, 11, 527, 67, 868, 687, 742, 670, 7, 42, 621, 1000, 874, 700, 728, 227, 752, 288, 106, 461, 331, 169, 422, 898, 436, 448, 709, 525, 130, 911, 445, 790, 389, 807, 390, 221, 197, 941, 587, 50, 389, 235, 85, 187, 57, 639, 174, 611, 613, 705, 513, 285, 878, 354, 459, 632, 517, 957, 955, 930, 935, 581, 491, 705, 216, 266, 44, 163, 4, 655, 141, 787, 681, 971, 397, 922, 454, 340, 103, 883, 795, 323, 456, 326, 29, 45, 369, 210, 525, 188, 202, 673, 736, 313, 860, 255, 344, 713, 45, 935, 73, 461, 725, 48, 810, 979, 461, 119, 82, 99, 766, 415, 920, 441, 78, 427, 755, 830, 40, 181, 491, 129, 872, 935, 320, 435, 558, 286, 542, 202, 297, 442, 605, 537, 261, 232, 119, 784, 99, 733, 249, 285, 737, 660, 742, 516, 860, 122, 646, 119, 738, 359, 675, 704, 661, 222, 832, 241, 519, 675, 234, 629, 287, 172, 810, 554, 328, 586, 26, 130, 396, 976, 511, 77, 766, 782, 775, 570, 696, 214, 733, 817, 760, 354, 592, 629, 901, 109, 834, 527, 359, 456, 13, 221, 653, 661, 495, 954, 481, 314, 848, 260, 605, 704, 822, 786, 385, 60, 39, 727, 962, 344, 442, 726, 658, 261, 672, 305, 357, 540, 733, 152, 22, 628, 25, 45, 226, 654, 67, 63, 973, 423, 893, 217, 436, 359, 177, 329, 987, 748, 383, 410, 264, 532, 736, 687, 463, 42, 922, 409, 391, 4, 139, 869, 514, 733, 149, 331, 841, 821, 247, 22, 807, 169, 788, 684, 169, 79, 928, 598, 621, 458, 151, 602, 253, 806, 733, 28, 933, 37, 90, 293, 151, 237, 356, 736, 405, 270, 493, 393, 311, 901, 551, 978, 773, 571, 263, 687, 456, 722, 404, 497, 21, 740, 35, 681, 583, 776, 290, 687, 208, 530, 341, 979, 972, 209, 567, 330, 969, 925, 587, 721, 682, 354, 917, 900, 331, 748, 10, 817, 565, 953, 364, 626, 324, 783, 601, 988, 2, 141, 44, 126, 930, 949, 481, 947, 819, 779, 748, 188, 549, 424, 950, 174, 170, 659, 158, 111, 504, 797, 606, 755, 266, 285, 429, 991, 718, 947, 538, 555, 991, 190, 783, 792, 845, 751, 156, 662, 924, 564, 361, 950, 562, 412, 615, 805, 229, 16, 530, 942, 681, 631, 628, 497, 731, 250, 892, 275, 945, 927, 78, 449, 745, 450, 509, 807, 705, 959, 165, 924, 928, 635, 941, 253, 882, 774, 610, 91, 31, 11, 251, 763, 387, 776, 626, 390, 881, 39, 466, 830, 127, 711, 329, 25, 474, 522, 42, 566, 348, 5, 191, 111, 541, 44, 929, 846, 946, 315, 906, 985, 765, 276, 671, 596, 405, 307, 60, 126, 134, 481, 642, 765, 47, 824, 44, 555, 745, 632, 950, 345, 586, 83, 560, 814, 202, 261, 701, 254, 260, 936, 999, 156, 901, 553, 39, 586, 642, 34, 758, 818, 72, 649, 457, 239, 459, 160, 334, 656, 477, 556, 544, 821, 344, 813, 80, 428, 353, 452, 834, 513, 988, 862, 119, 317, 23, 734, 20, 886, 194, 414, 63, 312, 390, 53, 768, 712, 358, 836, 78, 55, 355, 902, 757, 673, 563, 804, 413, 31, 803, 191, 388, 358, 124, 351, 178, 617, 654, 14, 457, 555, 872, 497, 81, 52, 863, 791, 859, 263, 648, 96, 827, 334, 956, 472, 34, 910, 626, 288, 37, 377, 157, 549, 147, 175, 921, 641, 243, 879, 625, 946, 483, 888, 679, 45, 241, 282, 171, 239, 227, 879, 463, 877, 138, 565, 14, 931, 6, 390, 802, 1000, 20, 825, 511, 39, 778, 112, 612, 779, 674, 380, 27, 437, 914, 333, 248, 138, 511, 534, 74, 408, 659, 967, 432, 437, 472, 226, 395, 646, 398, 582, 836, 998, 886, 372, 22, 612, 475, 238, 41, 322, 799, 965, 107, 878, 49, 714, 27, 422, 871, 394, 925, 714, 605, 162, 341, 412, 591, 997, 284, 504, 934, 346, 629, 767, 631, 754, 196, 958, 177, 584, 297, 635, 292, 432, 683, 270, 728, 347, 133, 614, 166, 431, 399, 77, 711, 681, 778, 545, 554, 170, 208, 229, 526, 819, 357, 882, 736, 717, 336, 119, 963, 855, 409, 864, 900, 343, 502, 332, 696, 913, 985, 744, 306, 881, 993, 347, 949, 512, 965, 996, 813, 684, 155, 5, 596, 705, 936, 518, 697, 648, 205, 645, 982, 112, 689, 615, 376, 794, 11, 893, 818, 481, 109, 453, 585, 254, 487, 776, 923, 562, 828, 78, 857, 921, 169, 828, 850, 879, 518, 609, 209, 709, 406, 22, 135, 389, 886, 565, 917, 930, 87, 589, 335, 507, 456, 480, 102, 834, 491, 645, 473, 182, 542, 160, 853, 832, 144, 69, 69, 394, 954, 557, 266, 230, 111, 142, 812, 139, 865, 823, 137, 559, 8, 863, 559, 756, 491, 691, 932, 560, 875, 344, 98, 6, 227, 839, 312, 225, 496, 947, 509, 341, 78, 574, 227, 368, 382, 759, 232, 936, 743, 482, 881, 360, 385, 130, 779, 402, 501, 471, 657, 374, 916, 432, 360, 401, 767, 994, 867, 480, 292, 446, 345, 244, 187, 956, 500, 110, 384, 389, 514, 981, 977, 566, 619, 676, 503, 487, 315, 684, 92, 318, 891, 228, 968, 985, 576, 41, 94, 201, 327, 114, 798, 365, 234, 44, 383, 5, 117, 605, 935, 200, 742, 198, 2, 897, 847, 67, 178, 235, 929, 382, 808, 436, 382, 766, 616, 270, 583, 704, 828, 678, 641, 596, 93, 946, 715, 273, 693, 621, 659, 379, 574, 661, 202, 509, 121, 106, 912, 125, 894, 470, 455, 340, 417, 378, 565, 336, 822, 234, 249, 481, 936, 24, 724, 7, 405, 765, 447, 430, 254, 476, 229, 284, 654, 600, 930, 969, 523, 88, 300, 518, 674, 947, 156, 37, 871, 806, 766, 469, 678, 412, 193, 391, 788, 802, 962, 888, 683, 521, 724, 184, 924, 713, 595, 435, 634, 618, 899, 571, 214, 442, 243, 905, 844, 556, 197, 44, 135, 444, 675, 224, 685, 862, 758, 426, 646, 989, 886, 339, 686, 164, 558, 357, 439, 439, 664, 846, 469, 147, 755, 752, 954, 395, 464, 541, 893, 705, 22, 208, 854, 586, 874, 412, 211, 5, 997, 137, 643, 490, 381, 538, 79, 971, 493, 16, 420, 758, 313, 746, 768, 240, 968, 28, 864, 513, 154, 259, 594, 279, 839, 220, 385, 507, 340, 825, 264, 89, 155, 627, 564, 64, 994, 480, 320, 730, 25, 435, 665, 963, 762, 886, 119, 430, 32, 272, 385, 344, 374, 804, 190, 825, 542, 339, 553, 162, 496, 22, 863, 332, 345, 996, 614, 418, 791, 68, 571, 521, 862, 587, 486, 521, 782, 348, 558, 708, 996, 694, 962, 400, 609, 746, 349, 270, 973, 349, 1000, 853, 217, 829, 984, 277, 665, 770, 84, 820, 309, 707, 951, 36, 612, 293, 115, 712, 980, 513, 347, 450, 415, 532, 410, 81, 980, 997, 175, 242, 437, 699, 32, 836, 639, 270, 871, 662, 317, 548, 980, 49, 709, 850, 693, 141, 598, 786, 419, 583, 254, 313, 809, 490, 449, 123, 375, 521, 232, 808, 384, 239, 309, 825, 905, 961, 16, 754, 526, 125, 247, 282, 405, 471, 937, 59, 710, 855, 358, 250, 222, 301, 146, 552, 251, 28, 233, 821, 418, 884, 944, 244, 560, 882, 582, 169, 248, 988, 300, 868, 796, 742, 722, 790, 848, 63, 168, 506, 213, 534, 494, 127, 86, 12, 826, 82, 962, 984, 746, 451, 276, 413, 346, 397, 727, 893, 158, 243, 210, 46, 855, 512, 68, 447, 451, 778, 762, 135, 627, 510, 14, 148, 667, 368, 964, 502, 689, 134, 480, 735, 834, 200, 397, 474, 441, 476, 296, 809, 914, 350, 638, 381, 579, 696, 502, 675, 758, 844, 189, 217, 515, 510, 808, 518, 901, 778, 507, 827, 476, 342, 434, 457, 651, 53, 730, 969, 459, 69, 202, 104, 257, 794, 2, 874, 940, 186, 174, 966, 361, 812, 10, 991, 17, 608, 929, 832, 311, 823, 394, 500, 364, 355, 583, 783, 700, 769, 15, 532, 353, 209, 921, 197, 185, 179, 659, 612, 506, 587, 941, 862, 906, 55, 898, 32, 648, 931, 503, 420, 332, 917, 926, 620, 715, 340, 139, 980, 658, 275, 978, 609, 331, 896, 78, 805, 160, 108, 259, 715, 609, 422, 160, 924, 767, 687, 813, 775, 113, 774, 839, 747, 483, 687, 101, 765, 263, 786, 636, 510, 537, 75, 41, 15, 776, 139, 123, 386, 978, 886, 314, 820, 86, 393, 580, 987, 49, 413, 920, 28, 600, 400, 561, 704, 407, 893, 956, 986, 55, 837, 879, 146, 942, 128, 208, 956, 831, 577, 288, 253, 404, 9, 637, 52, 774, 71, 11, 285, 773, 833, 508, 939, 115, 333, 741, 324, 146, 579, 63, 374, 254, 332, 486, 536, 85, 316, 384, 404, 481, 426, 75, 220, 645, 829, 512, 149, 71, 156, 385, 566, 665, 525, 566, 353, 666, 727, 403, 815, 744, 905, 467, 346, 778, 38, 384, 978, 343, 513, 250, 77, 111, 436, 620, 546, 519, 112, 41, 359, 943, 180, 270, 484, 915, 947, 2, 648, 237, 655, 743, 888, 684, 848, 785, 161, 44, 739, 526, 998, 165, 386, 288, 879, 484, 914, 708, 999, 600, 977, 174, 442, 579, 979, 568, 866, 629, 513, 392, 369, 296, 212, 963, 537, 866, 885, 943, 239, 338, 634, 323, 144, 760, 551, 537, 711, 115, 922, 480, 692, 606, 710, 89, 497, 211, 390, 512, 354, 407, 731, 44, 957, 604, 164, 558, 81, 502, 689, 420, 315, 674, 936, 874, 386, 864, 116, 59, 984, 763, 615, 559, 309, 900, 853, 482, 221, 677, 727, 996, 791, 92, 990, 855, 583, 331, 733, 597, 96, 564, 21, 789, 824, 731, 92, 589, 392, 129, 893, 943, 923, 532, 865, 198, 296, 909, 591, 227, 131, 229, 497, 304, 735, 272, 79, 899, 664, 975, 182, 871, 18, 538, 480, 127, 816, 271, 899, 700, 853, 867, 792, 737, 5, 144, 208, 578, 4, 128, 485, 42, 319, 220, 175, 317, 882, 232, 650, 734, 676, 189, 350, 273, 539, 970, 218, 553, 66, 376, 955, 909, 96, 853, 716, 918, 461, 423, 897, 537, 762, 178, 69, 441, 328, 512, 345, 863, 736, 384, 126, 710, 542, 152, 35, 617, 517, 576, 416, 469, 392, 88, 536, 122, 674, 750, 168, 202, 241, 599, 407, 888, 548, 526, 219, 91, 925, 100, 131, 196, 577, 640, 432, 395, 642, 263, 801, 641, 603, 29, 346, 769, 206, 645, 975, 441, 518, 213, 8, 237, 472, 605, 836, 291, 330, 721, 665, 715, 878, 89, 125, 497, 613, 655, 231, 137, 922, 241, 18, 283, 518, 634, 740, 146, 508, 321, 725, 360, 812, 192, 995, 522, 424, 726, 379, 36, 441, 288, 662, 527, 831, 490, 156, 149, 573, 265, 212, 942, 140, 917, 537, 937, 840, 299, 471, 86, 367, 927, 101, 246, 43, 861, 684, 590, 466, 261, 586, 703, 793, 163, 626, ]
Time Consuming: 0.047972917556762695